Version identifier: 12.10.0.0 | 2019-11-26 | 843d4de
CPXPARAM_Read_DataCheck                          1
CPXPARAM_RandomSeed                              201903125
CPXPARAM_TimeLimit                               7200
CPXPARAM_Output_IntSolFilePrefix                 "solucoes/t_sol_ID002M003J005_ZintTrue_manne_ub0/sol"
Tried aggregator 1 time.
Reduced MIP has 75 rows, 46 columns, and 210 nonzeros.
Reduced MIP has 30 binaries, 0 generals, 0 SOSs, and 0 indicators.
Presolve time = 0.00 sec. (0.08 ticks)
Found incumbent of value 69.000000 after 0.00 sec. (0.31 ticks)
Probing time = 0.00 sec. (0.01 ticks)
Tried aggregator 1 time.
Detecting symmetries...
Reduced MIP has 75 rows, 46 columns, and 210 nonzeros.
Reduced MIP has 30 binaries, 0 generals, 0 SOSs, and 0 indicators.
Presolve time = 0.00 sec. (0.10 ticks)
Probing time = 0.00 sec. (0.01 ticks)
MIP emphasis: balance optimality and feasibility.
MIP search method: dynamic search.
Parallel mode: deterministic, using up to 8 threads.
Root relaxation solution time = 0.00 sec. (0.11 ticks)

        Nodes                                         Cuts/
   Node  Left     Objective  IInf  Best Integer    Best Bound    ItCnt     Gap

*     0+    0                           69.0000       23.0000            66.67%
New incumbent written to file 'solucoes/t_sol_ID002M003J005_ZintTrue_manne_ub0/sol-00001.sol'.
      0     0       23.0000    11       69.0000       23.0000       22   66.67%
      0     0       29.0000    11       69.0000      Cuts: 13       30   57.97%
*     0+    0                           34.0000       29.0000            14.71%
New incumbent written to file 'solucoes/t_sol_ID002M003J005_ZintTrue_manne_ub0/sol-00002.sol'.
      0     0       29.0084    11       34.0000      Cuts: 11       51   14.68%
      0     0       29.0084    11       34.0000      Cuts: 12       60   14.68%
      0     0       29.0087    11       34.0000       Cuts: 6       66   14.68%
*     0+    0                           33.0000       29.0087            12.09%
New incumbent written to file 'solucoes/t_sol_ID002M003J005_ZintTrue_manne_ub0/sol-00003.sol'.
      0     0        cutoff             33.0000       33.0000       66    0.00%
Elapsed time = 0.01 sec. (3.63 ticks, tree = 0.01 MB, solutions = 3)

Implied bound cuts applied:  7
Flow cuts applied:  4
Mixed integer rounding cuts applied:  7
Gomory fractional cuts applied:  1

Root node processing (before b&c):
  Real time             =    0.01 sec. (3.63 ticks)
Parallel b&c, 8 threads:
  Real time             =    0.00 sec. (0.00 ticks)
  Sync time (average)   =    0.00 sec.
  Wait time (average)   =    0.00 sec.
                          ------------
Total (root+branch&cut) =    0.01 sec. (3.63 ticks)
